(declare-fun b65 () (_ FloatingPoint 8 24))
(declare-fun b74 () (_ FloatingPoint 8 24))
(declare-fun b77 () (_ FloatingPoint 8 24))
(declare-fun b80 () (_ FloatingPoint 8 24))
(declare-fun b44 () (_ FloatingPoint 8 24))
(declare-fun b10 () (_ FloatingPoint 8 24))
(declare-fun b41 () (_ FloatingPoint 8 24))
(declare-fun b23 () (_ FloatingPoint 8 24))
(declare-fun b20 () (_ FloatingPoint 8 24))
(declare-fun b26 () (_ FloatingPoint 8 24))
(declare-fun b62 () (_ FloatingPoint 8 24))
(declare-fun b29 () (_ FloatingPoint 8 24))
(declare-fun b38 () (_ FloatingPoint 8 24))
(declare-fun b11 () (_ FloatingPoint 8 24))
(declare-fun b35 () (_ FloatingPoint 8 24))
(declare-fun b14 () (_ FloatingPoint 8 24))
(declare-fun b68 () (_ FloatingPoint 8 24))
(declare-fun b86 () (_ FloatingPoint 8 24))
(declare-fun b47 () (_ FloatingPoint 8 24))
(declare-fun b83 () (_ FloatingPoint 8 24))
(declare-fun b101 () (_ FloatingPoint 8 24))
(declare-fun b95 () (_ FloatingPoint 8 24))
(declare-fun b170 () (_ FloatingPoint 8 24))
(declare-fun b50 () (_ FloatingPoint 8 24))
(declare-fun b17 () (_ FloatingPoint 8 24))
(declare-fun b32 () (_ FloatingPoint 8 24))
(declare-fun b53 () (_ FloatingPoint 8 24))
(declare-fun b89 () (_ FloatingPoint 8 24))
(declare-fun b71 () (_ FloatingPoint 8 24))
(declare-fun b92 () (_ FloatingPoint 8 24))
(declare-fun b56 () (_ FloatingPoint 8 24))
(declare-fun b98 () (_ FloatingPoint 8 24))
(declare-fun b59 () (_ FloatingPoint 8 24))
(assert (let ((.def_191 (fp.lt b170 b98)))
(let ((.def_189 (fp.lt b98 b101)))
(let ((.def_187 (fp.lt b170 b95)))
(let ((.def_185 (fp.lt b95 b101)))
(let ((.def_183 (fp.lt b170 b92)))
(let ((.def_181 (fp.lt b92 b101)))
(let ((.def_179 (fp.lt b170 b89)))
(let ((.def_177 (fp.lt b89 b101)))
(let ((.def_175 (fp.lt b170 b86)))
(let ((.def_173 (fp.lt b86 b101)))
(let ((.def_171 (fp.lt b170 b83)))
(let ((.def_169 (fp.lt b83 b101)))
(let ((.def_167 (fp.lt b170 b80)))
(let ((.def_165 (fp.lt b80 b101)))
(let ((.def_163 (fp.lt b170 b77)))
(let ((.def_161 (fp.lt b77 b101)))
(let ((.def_159 (fp.lt b170 b74)))
(let ((.def_157 (fp.lt b74 b101)))
(let ((.def_155 (fp.lt b170 b71)))
(let ((.def_153 (fp.lt b71 b101)))
(let ((.def_151 (fp.lt b170 b68)))
(let ((.def_149 (fp.lt b68 b101)))
(let ((.def_147 (fp.lt b170 b65)))
(let ((.def_145 (fp.lt b65 b101)))
(let ((.def_143 (fp.lt b170 b62)))
(let ((.def_141 (fp.lt b62 b101)))
(let ((.def_139 (fp.lt b170 b59)))
(let ((.def_137 (fp.lt b59 b101)))
(let ((.def_135 (fp.lt b170 b56)))
(let ((.def_133 (fp.lt b56 b101)))
(let ((.def_131 (fp.lt b170 b53)))
(let ((.def_129 (fp.lt b53 b101)))
(let ((.def_127 (fp.lt b170 b50)))
(let ((.def_125 (fp.lt b50 b101)))
(let ((.def_123 (fp.lt b170 b47)))
(let ((.def_121 (fp.lt b47 b101)))
(let ((.def_119 (fp.lt b170 b44)))
(let ((.def_117 (fp.lt b44 b101)))
(let ((.def_115 (fp.lt b170 b41)))
(let ((.def_113 (fp.lt b41 b101)))
(let ((.def_111 (fp.lt b170 b38)))
(let ((.def_109 (fp.lt b38 b101)))
(let ((.def_107 (fp.lt b170 b35)))
(let ((.def_105 (fp.lt b35 b101)))
(let ((.def_103 (fp.lt b170 b32)))
(let ((.def_101 (fp.lt b32 b101)))
(let ((.def_99 (fp.lt b170 b29)))
(let ((.def_97 (fp.lt b29 b101)))
(let ((.def_95 (fp.lt b170 b26)))
(let ((.def_93 (fp.lt b26 b101)))
(let ((.def_91 (fp.lt b170 b23)))
(let ((.def_89 (fp.lt b23 b101)))
(let ((.def_87 (fp.lt b170 b20)))
(let ((.def_85 (fp.lt b20 b101)))
(let ((.def_83 (fp.lt b170 b17)))
(let ((.def_81 (fp.lt b17 b101)))
(let ((.def_79 (fp.lt b170 b14)))
(let ((.def_77 (fp.lt b14 b101)))
(let ((.def_75 (fp.lt b170 b11)))
(let ((.def_13 (fp.div RNE b10 b11)))
(let ((.def_15 (fp.div RNE .def_13 b14)))
(let ((.def_17 (fp.div RNE .def_15 b17)))
(let ((.def_19 (fp.div RNE .def_17 b20)))
(let ((.def_21 (fp.div RNE .def_19 b23)))
(let ((.def_23 (fp.div RNE .def_21 b26)))
(let ((.def_25 (fp.div RNE .def_23 b29)))
(let ((.def_27 (fp.div RNE .def_25 b32)))
(let ((.def_29 (fp.div RNE .def_27 b35)))
(let ((.def_31 (fp.div RNE .def_29 b38)))
(let ((.def_33 (fp.div RNE .def_31 b41)))
(let ((.def_35 (fp.div RNE .def_33 b44)))
(let ((.def_37 (fp.div RNE .def_35 b47)))
(let ((.def_39 (fp.div RNE .def_37 b50)))
(let ((.def_41 (fp.div RNE .def_39 b53)))
(let ((.def_43 (fp.div RNE .def_41 b56)))
(let ((.def_45 (fp.div RNE .def_43 b59)))
(let ((.def_47 (fp.div RNE .def_45 b62)))
(let ((.def_49 (fp.div RNE .def_47 b65)))
(let ((.def_51 (fp.div RNE .def_49 b68)))
(let ((.def_53 (fp.div RNE .def_51 b71)))
(let ((.def_55 (fp.div RNE .def_53 b74)))
(let ((.def_57 (fp.div RNE .def_55 b77)))
(let ((.def_59 (fp.div RNE .def_57 b80)))
(let ((.def_61 (fp.div RNE .def_59 b83)))
(let ((.def_63 (fp.div RNE .def_61 b86)))
(let ((.def_65 (fp.div RNE .def_63 b89)))
(let ((.def_67 (fp.div RNE .def_65 b92)))
(let ((.def_69 (fp.div RNE .def_67 b95)))
(let ((.def_71 (fp.div RNE .def_69 b98)))
(let ((.def_72 (fp.lt .def_71 b101)))
(let ((.def_11 (fp.lt b11 b101)))
(let ((.def_73 (and .def_11 .def_72)))
(let ((.def_76 (and .def_73 .def_75)))
(let ((.def_78 (and .def_76 .def_77)))
(let ((.def_80 (and .def_78 .def_79)))
(let ((.def_82 (and .def_80 .def_81)))
(let ((.def_84 (and .def_82 .def_83)))
(let ((.def_86 (and .def_84 .def_85)))
(let ((.def_88 (and .def_86 .def_87)))
(let ((.def_90 (and .def_88 .def_89)))
(let ((.def_92 (and .def_90 .def_91)))
(let ((.def_94 (and .def_92 .def_93)))
(let ((.def_96 (and .def_94 .def_95)))
(let ((.def_98 (and .def_96 .def_97)))
(let ((.def_100 (and .def_98 .def_99)))
(let ((.def_102 (and .def_100 .def_101)))
(let ((.def_104 (and .def_102 .def_103)))
(let ((.def_106 (and .def_104 .def_105)))
(let ((.def_108 (and .def_106 .def_107)))
(let ((.def_110 (and .def_108 .def_109)))
(let ((.def_112 (and .def_110 .def_111)))
(let ((.def_114 (and .def_112 .def_113)))
(let ((.def_116 (and .def_114 .def_115)))
(let ((.def_118 (and .def_116 .def_117)))
(let ((.def_120 (and .def_118 .def_119)))
(let ((.def_122 (and .def_120 .def_121)))
(let ((.def_124 (and .def_122 .def_123)))
(let ((.def_126 (and .def_124 .def_125)))
(let ((.def_128 (and .def_126 .def_127)))
(let ((.def_130 (and .def_128 .def_129)))
(let ((.def_132 (and .def_130 .def_131)))
(let ((.def_134 (and .def_132 .def_133)))
(let ((.def_136 (and .def_134 .def_135)))
(let ((.def_138 (and .def_136 .def_137)))
(let ((.def_140 (and .def_138 .def_139)))
(let ((.def_142 (and .def_140 .def_141)))
(let ((.def_144 (and .def_142 .def_143)))
(let ((.def_146 (and .def_144 .def_145)))
(let ((.def_148 (and .def_146 .def_147)))
(let ((.def_150 (and .def_148 .def_149)))
(let ((.def_152 (and .def_150 .def_151)))
(let ((.def_154 (and .def_152 .def_153)))
(let ((.def_156 (and .def_154 .def_155)))
(let ((.def_158 (and .def_156 .def_157)))
(let ((.def_160 (and .def_158 .def_159)))
(let ((.def_162 (and .def_160 .def_161)))
(let ((.def_164 (and .def_162 .def_163)))
(let ((.def_166 (and .def_164 .def_165)))
(let ((.def_168 (and .def_166 .def_167)))
(let ((.def_170 (and .def_168 .def_169)))
(let ((.def_172 (and .def_170 .def_171)))
(let ((.def_174 (and .def_172 .def_173)))
(let ((.def_176 (and .def_174 .def_175)))
(let ((.def_178 (and .def_176 .def_177)))
(let ((.def_180 (and .def_178 .def_179)))
(let ((.def_182 (and .def_180 .def_181)))
(let ((.def_184 (and .def_182 .def_183)))
(let ((.def_186 (and .def_184 .def_185)))
(let ((.def_188 (and .def_186 .def_187)))
(let ((.def_190 (and .def_188 .def_189)))
(let ((.def_192 (and .def_190 .def_191)))
.def_192))))))))))))))))))))))))))))))))))))))))))))))))))))))))))))))))))))))))))))))))))))))))))))))))))))))))))))))))))))))))))))))))))))))))))))))))))))))))
(check-sat)
